50

100 27 317
99 16 308
98 12 297
96 21 436
94 19 414
92 23 450
90 16 337
89 2 325
89 17 423
89 19 414
87 8 274
86 3 286
81 11 402
80 2 353
78 4 259
77 17 351
74 15 346
74 6 377
72 18 376
72 14 385
63 5 261
62 8 274
60 10 423
60 6 441
55 1 381
55 3 424
54 17 261
53 13 418
50 5 376
50 10 335
46 2 426
46 4 415
45 11 424
42 10 338
42 5 355
41 7 280
38 12 159
35 8 425
34 7 446
33 6 295
33 6 193
32 10 226
28 5 292
28 6 394
27 5 165
26 6 84
23 7 253
21 7 359
21 4 375
20 3 303
